100
128
37
5
13
28
2
1
26
19
2
24
14
15
38
10
19
3
2
3
3
19
26
9
18
25
14
5
25
22
14
4
2
2
4
12
33
2
26
21
3
5
36
4
11
32
13
4
4
11
21
6
13
35
2
13
52
58
27
26
38
47
40
45
2
2
2
63
49
3
20
46
30
54
41
2
39
63
57
8
2
46
53
5
48
4
44
23
52
61
2
37
4
36
35
4
2
6
7
51
57
20